
Log started (V11.0.0) Mon May 19 13:06:49 2008

Tried aggregator 1 time.
Reduced MIP has 550 rows, 25001 columns, and 50050 nonzeros.
Presolve time =    0.19 sec.
Clique table members: 500.
MIP emphasis: balance optimality and feasibility.
MIP search method: dynamic search.
Parallel mode: none, using 1 thread.
Root relaxation solution time =    3.61 sec.

        Nodes                                         Cuts/
   Node  Left     Objective  IInf  Best Integer     Best Node    ItCnt     Gap

*     0+    0                        55204.0000     1000.9600     1070   98.19%
*     0+    0                         1003.0000     1000.9600     1070    0.20%
      0     0     1001.0000    90     1003.0000      Fract: 6     1161    0.20%
      0     0     1001.0000    75     1003.0000     Covers: 3     1240    0.20%
      0     0     1001.0000    87     1003.0000     Covers: 1     1307    0.20%
      0     0     1001.0000    86     1003.0000     Covers: 3     1334    0.20%
      0     2     1001.0000    86     1003.0000     1001.0000     1334    0.20%
Elapsed time =  10.55 sec. (tree size =  0.00 MB, solutions = 2)
    100    97     1002.0000    46     1003.0000     1001.0000     4432    0.20%
    200   133     1002.0000    53     1003.0000     1001.0000    37720    0.20%
    300   147     1002.0000    79     1003.0000     1001.0000    81394    0.20%
    400   205     1002.0000    82     1003.0000     1001.0000   107303    0.20%
    500   271    infeasible           1003.0000     1001.0000   126357    0.20%
    600   242     1002.0000    67     1003.0000     1001.0000   139845    0.20%
    700   178    infeasible           1003.0000     1001.0000   175265    0.20%
    800   125     1002.0000    72     1003.0000     1001.0000   219858    0.20%
    900    74    infeasible           1003.0000     1001.0000   265504    0.20%
   1000   128     1002.0000    76     1003.0000     1001.0000   294105    0.20%
Elapsed time = 259.98 sec. (tree size =  1.63 MB, solutions = 2)
   1100   194     1002.0000    90     1003.0000     1001.0000   309060    0.20%
   1200   258     1002.0000    76     1003.0000     1001.0000   315453    0.20%
   1300   286    infeasible           1003.0000     1001.0000   322588    0.20%
   1400   290     1002.0000    88     1003.0000     1001.0000   336862    0.20%
   1500   312     1002.0000    56     1003.0000     1001.0000   344172    0.20%
   1600   375     1002.0000    56     1003.0000     1001.0000   363798    0.20%
   1700   377    infeasible           1003.0000     1001.0000   415108    0.20%
   1800   463     1001.0000    68     1003.0000     1001.0000   424447    0.20%
   1900   563     1001.0000    78     1003.0000     1001.0000   428871    0.20%
   2000   660     1001.0000    80     1003.0000     1001.0000   433120    0.20%
Elapsed time = 456.80 sec. (tree size =  8.60 MB, solutions = 2)
   2100   753     1002.0000    62     1003.0000     1001.0000   436481    0.20%
   2200   765    infeasible           1003.0000     1001.0000   488497    0.20%
   2300   843     1001.0000    74     1003.0000     1001.0000   497833    0.20%
   2400   939     1001.0000    60     1003.0000     1001.0000   501443    0.20%
   2500  1039     1001.0000    65     1003.0000     1001.0000   505320    0.20%
   2600  1139     1001.0000    67     1003.0000     1001.0000   507317    0.20%
   2700  1238     1001.0181    94     1003.0000     1001.0000   511714    0.20%
   2800  1337     1001.0000    76     1003.0000     1001.0000   514876    0.20%
   2900  1431     1001.0002    87     1003.0000     1001.0000   516825    0.20%
   3000  1471    infeasible           1003.0000     1001.0000   518092    0.20%
Elapsed time = 569.94 sec. (tree size = 19.41 MB, solutions = 2)
   3100  1487     1001.0000    68     1003.0000     1001.0000   519871    0.20%
   3200  1587     1001.0000    80     1003.0000     1001.0000   521345    0.20%
   3300  1680     1001.0000    73     1003.0000     1001.0000   527166    0.20%
   3400  1780     1001.0000    74     1003.0000     1001.0000   532365    0.20%
   3500  1876     1001.0000    62     1003.0000     1001.0000   538522    0.20%
   3600  1973     1001.0000    62     1003.0000     1001.0000   544811    0.20%
   3700  2072     1001.0000    63     1003.0000     1001.0000   552294    0.20%
*  3793+ 1624                         1002.0000     1001.0000   558125    0.10%
   3800  1633     1001.0000    66     1002.0000     1001.0000   558299    0.10%
   3900  1733     1001.0000    56     1002.0000     1001.0000   559271    0.10%
   4000  1833     1001.0000    76     1002.0000     1001.0000   560411    0.10%
Elapsed time = 646.48 sec. (tree size = 24.53 MB, solutions = 3)
   4100  1905    infeasible           1002.0000     1001.0000   574932    0.10%
   4200  1937     1001.0000    48     1002.0000     1001.0000   612581    0.10%
   4300  2017     1001.0000    79     1002.0000     1001.0000   619199    0.10%
   4400  2097     1001.0000    71     1002.0000     1001.0000   627212    0.10%
   4500  2140    infeasible           1002.0000     1001.0000   658538    0.10%
   4600  2040    infeasible           1002.0000     1001.0000   837039    0.10%
   4700  1940    infeasible           1002.0000     1001.0000  1008319    0.10%
   4800  1840    infeasible           1002.0000     1001.0000  1199430    0.10%
   4900  1740    infeasible           1002.0000     1001.0000  1384015    0.10%
   5000  1640    infeasible           1002.0000     1001.0000  1595217    0.10%
Elapsed time = 1293.41 sec. (tree size = 22.09 MB, solutions = 3)
   5100  1540    infeasible           1002.0000     1001.0000  1793801    0.10%
   5200  1440    infeasible           1002.0000     1001.0000  1997542    0.10%
   5300  1340    infeasible           1002.0000     1001.0000  2234856    0.10%
   5400  1240    infeasible           1002.0000     1001.0000  2426596    0.10%
   5500  1140    infeasible           1002.0000     1001.0000  2660428    0.10%
   5600  1040    infeasible           1002.0000     1001.0000  2903586    0.10%
   5700   940    infeasible           1002.0000     1001.0000  3123291    0.10%
   5800   840    infeasible           1002.0000     1001.0000  3312984    0.10%
   5900   740    infeasible           1002.0000     1001.0000  3524253    0.10%
   6000   640    infeasible           1002.0000     1001.0000  3737110    0.10%
Elapsed time = 2542.17 sec. (tree size =  8.60 MB, solutions = 3)
   6100   540    infeasible           1002.0000     1001.0000  3968453    0.10%
   6200   440    infeasible           1002.0000     1001.0000  4152849    0.10%
   6300   340    infeasible           1002.0000     1001.0000  4382203    0.10%
   6400   240    infeasible           1002.0000     1001.0000  4570284    0.10%
   6500   140    infeasible           1002.0000     1001.0000  4728130    0.10%
   6600    40        cutoff           1002.0000     1001.0000  4821338    0.10%

Cover cuts applied:  127
Gomory fractional cuts applied:  18

Solution pool: 3 solutions saved.

MIP - Integer optimal solution:  Objective = 1.0020000000e+003
Solution time = 3210.11 sec.  Iterations = 4821418  Nodes = 6641


Incumbent solution
Variable Name           Solution Value
Cmax                       1002.000000
X_1_45                        1.000000
X_2_27                        1.000000
X_3_50                        1.000000
X_4_47                        1.000000
X_5_49                        1.000000
X_6_26                        1.000000
X_7_39                        1.000000
X_8_7                         1.000000
X_9_19                        1.000000
X_10_43                       1.000000
X_11_27                       1.000000
X_12_11                       1.000000
X_13_42                       1.000000
X_14_11                       1.000000
X_15_16                       1.000000
X_16_7                        1.000000
X_17_17                       1.000000
X_18_30                       1.000000
X_19_48                       1.000000
X_20_14                       1.000000
X_21_36                       1.000000
X_22_38                       1.000000
X_23_35                       1.000000
X_24_38                       1.000000
X_25_8                        1.000000
X_26_20                       1.000000
X_27_39                       1.000000
X_28_49                       1.000000
X_29_44                       1.000000
X_30_2                        1.000000
X_31_8                        1.000000
X_32_40                       1.000000
X_33_25                       1.000000
X_34_30                       1.000000
X_35_20                       1.000000
X_36_25                       1.000000
X_37_21                       1.000000
X_38_34                       1.000000
X_39_2                        1.000000
X_40_43                       1.000000
X_41_6                        1.000000
X_42_32                       1.000000
X_43_42                       1.000000
X_44_22                       1.000000
X_45_22                       1.000000
X_46_41                       1.000000
X_47_35                       1.000000
X_48_22                       1.000000
X_49_1                        1.000000
X_50_47                       1.000000
X_51_6                        1.000000
X_52_17                       1.000000
X_53_27                       1.000000
X_54_27                       1.000000
X_55_21                       1.000000
X_56_9                        1.000000
X_57_35                       1.000000
X_58_15                       1.000000
X_59_44                       1.000000
X_60_7                        1.000000
X_61_42                       1.000000
X_62_21                       1.000000
X_63_50                       1.000000
X_64_15                       1.000000
X_65_20                       1.000000
X_66_20                       1.000000
X_67_43                       1.000000
X_68_29                       1.000000
X_69_11                       1.000000
X_70_46                       1.000000
X_71_34                       1.000000
X_72_37                       1.000000
X_73_41                       1.000000
X_74_14                       1.000000
X_75_41                       1.000000
X_76_23                       1.000000
X_77_3                        1.000000
X_78_1                        1.000000
X_79_45                       1.000000
X_80_28                       1.000000
X_81_27                       1.000000
X_82_22                       1.000000
X_83_45                       1.000000
X_84_10                       1.000000
X_85_8                        1.000000
X_86_16                       1.000000
X_87_15                       1.000000
X_88_8                        1.000000
X_89_5                        1.000000
X_90_9                        1.000000
X_91_22                       1.000000
X_92_31                       1.000000
X_93_46                       1.000000
X_94_37                       1.000000
X_95_49                       1.000000
X_96_5                        1.000000
X_97_7                        1.000000
X_98_25                       1.000000
X_99_45                       1.000000
X_100_21                      1.000000
X_101_14                      1.000000
X_102_34                      1.000000
X_103_18                      1.000000
X_104_40                      1.000000
X_105_44                      1.000000
X_106_2                       1.000000
X_107_40                      1.000000
X_108_43                      1.000000
X_109_50                      1.000000
X_110_8                       1.000000
X_111_3                       1.000000
X_112_12                      1.000000
X_113_2                       1.000000
X_114_18                      1.000000
X_115_43                      1.000000
X_116_6                       1.000000
X_117_2                       1.000000
X_118_12                      1.000000
X_119_31                      1.000000
X_120_15                      1.000000
X_121_11                      1.000000
X_122_22                      1.000000
X_123_33                      1.000000
X_124_33                      1.000000
X_125_48                      1.000000
X_126_10                      1.000000
X_127_23                      1.000000
X_128_35                      1.000000
X_129_11                      1.000000
X_130_44                      1.000000
X_131_16                      1.000000
X_132_4                       1.000000
X_133_31                      1.000000
X_134_27                      1.000000
X_135_37                      1.000000
X_136_49                      1.000000
X_137_27                      1.000000
X_138_1                       1.000000
X_139_11                      1.000000
X_140_4                       1.000000
X_141_31                      1.000000
X_142_29                      1.000000
X_143_23                      1.000000
X_144_6                       1.000000
X_145_48                      1.000000
X_146_38                      1.000000
X_147_28                      1.000000
X_148_17                      1.000000
X_149_24                      1.000000
X_150_13                      1.000000
X_151_47                      1.000000
X_152_33                      1.000000
X_153_20                      1.000000
X_154_34                      1.000000
X_155_2                       1.000000
X_156_30                      1.000000
X_157_12                      1.000000
X_158_20                      1.000000
X_159_3                       1.000000
X_160_19                      1.000000
X_161_14                      1.000000
X_162_4                       1.000000
X_163_42                      1.000000
X_164_35                      1.000000
X_165_49                      1.000000
X_166_43                      1.000000
X_167_10                      1.000000
X_168_3                       1.000000
X_169_33                      1.000000
X_170_31                      1.000000
X_171_8                       1.000000
X_172_23                      1.000000
X_173_25                      1.000000
X_174_13                      1.000000
X_175_30                      1.000000
X_176_32                      1.000000
X_177_13                      1.000000
X_178_23                      1.000000
X_179_42                      1.000000
X_180_26                      1.000000
X_181_38                      1.000000
X_182_1                       1.000000
X_183_12                      1.000000
X_184_31                      1.000000
X_185_25                      1.000000
X_186_33                      1.000000
X_187_7                       1.000000
X_188_19                      1.000000
X_189_7                       1.000000
X_190_5                       1.000000
X_191_29                      1.000000
X_192_29                      1.000000
X_193_34                      1.000000
X_194_37                      1.000000
X_195_12                      1.000000
X_196_39                      1.000000
X_197_15                      1.000000
X_198_1                       1.000000
X_199_8                       1.000000
X_200_4                       1.000000
X_201_39                      1.000000
X_202_37                      1.000000
X_203_35                      1.000000
X_204_50                      1.000000
X_205_29                      1.000000
X_206_46                      1.000000
X_207_39                      1.000000
X_208_15                      1.000000
X_209_47                      1.000000
X_210_35                      1.000000
X_211_25                      1.000000
X_212_8                       1.000000
X_213_36                      1.000000
X_214_34                      1.000000
X_215_36                      1.000000
X_216_39                      1.000000
X_217_17                      1.000000
X_218_5                       1.000000
X_219_9                       1.000000
X_220_26                      1.000000
X_221_20                      1.000000
X_222_18                      1.000000
X_223_14                      1.000000
X_224_4                       1.000000
X_225_48                      1.000000
X_226_32                      1.000000
X_227_16                      1.000000
X_228_30                      1.000000
X_229_38                      1.000000
X_230_34                      1.000000
X_231_3                       1.000000
X_232_34                      1.000000
X_233_1                       1.000000
X_234_23                      1.000000
X_235_37                      1.000000
X_236_18                      1.000000
X_237_45                      1.000000
X_238_19                      1.000000
X_239_23                      1.000000
X_240_45                      1.000000
X_241_28                      1.000000
X_242_11                      1.000000
X_243_27                      1.000000
X_244_44                      1.000000
X_245_25                      1.000000
X_246_48                      1.000000
X_247_9                       1.000000
X_248_7                       1.000000
X_249_30                      1.000000
X_250_49                      1.000000
X_251_19                      1.000000
X_252_13                      1.000000
X_253_45                      1.000000
X_254_1                       1.000000
X_255_41                      1.000000
X_256_21                      1.000000
X_257_36                      1.000000
X_258_17                      1.000000
X_259_10                      1.000000
X_260_36                      1.000000
X_261_39                      1.000000
X_262_29                      1.000000
X_263_35                      1.000000
X_264_24                      1.000000
X_265_41                      1.000000
X_266_49                      1.000000
X_267_4                       1.000000
X_268_22                      1.000000
X_269_19                      1.000000
X_270_18                      1.000000
X_271_18                      1.000000
X_272_40                      1.000000
X_273_47                      1.000000
X_274_29                      1.000000
X_275_15                      1.000000
X_276_3                       1.000000
X_277_13                      1.000000
X_278_20                      1.000000
X_279_9                       1.000000
X_280_1                       1.000000
X_281_40                      1.000000
X_282_41                      1.000000
X_283_4                       1.000000
X_284_40                      1.000000
X_285_46                      1.000000
X_286_26                      1.000000
X_287_18                      1.000000
X_288_17                      1.000000
X_289_16                      1.000000
X_290_34                      1.000000
X_291_24                      1.000000
X_292_35                      1.000000
X_293_21                      1.000000
X_294_26                      1.000000
X_295_32                      1.000000
X_296_36                      1.000000
X_297_27                      1.000000
X_298_16                      1.000000
X_299_50                      1.000000
X_300_25                      1.000000
X_301_38                      1.000000
X_302_5                       1.000000
X_303_49                      1.000000
X_304_33                      1.000000
X_305_38                      1.000000
X_306_3                       1.000000
X_307_6                       1.000000
X_308_18                      1.000000
X_309_50                      1.000000
X_310_30                      1.000000
X_311_48                      1.000000
X_312_43                      1.000000
X_313_44                      1.000000
X_314_20                      1.000000
X_315_31                      1.000000
X_316_2                       1.000000
X_317_44                      1.000000
X_318_21                      1.000000
X_319_41                      1.000000
X_320_14                      1.000000
X_321_31                      1.000000
X_322_39                      1.000000
X_323_24                      1.000000
X_324_48                      1.000000
X_325_26                      1.000000
X_326_29                      1.000000
X_327_26                      1.000000
X_328_5                       1.000000
X_329_6                       1.000000
X_330_19                      1.000000
X_331_27                      1.000000
X_332_30                      1.000000
X_333_14                      1.000000
X_334_50                      1.000000
X_335_17                      1.000000
X_336_3                       1.000000
X_337_12                      1.000000
X_338_37                      1.000000
X_339_14                      1.000000
X_340_32                      1.000000
X_341_6                       1.000000
X_342_42                      1.000000
X_343_46                      1.000000
X_344_17                      1.000000
X_345_28                      1.000000
X_346_3                       1.000000
X_347_12                      1.000000
X_348_10                      1.000000
X_349_49                      1.000000
X_350_47                      1.000000
X_351_36                      1.000000
X_352_34                      1.000000
X_353_45                      1.000000
X_354_38                      1.000000
X_355_42                      1.000000
X_356_28                      1.000000
X_357_44                      1.000000
X_358_25                      1.000000
X_359_1                       1.000000
X_360_24                      1.000000
X_361_47                      1.000000
X_362_37                      1.000000
X_363_38                      1.000000
X_364_24                      1.000000
X_365_10                      1.000000
X_366_28                      1.000000
X_367_16                      1.000000
X_368_7                       1.000000
X_369_33                      1.000000
X_370_43                      1.000000
X_371_32                      1.000000
X_372_1                       1.000000
X_373_32                      1.000000
X_374_13                      1.000000
X_375_22                      1.000000
X_376_32                      1.000000
X_377_2                       1.000000
X_378_24                      1.000000
X_379_26                      1.000000
X_380_18                      1.000000
X_381_50                      1.000000
X_382_25                      1.000000
X_383_10                      1.000000
X_384_46                      1.000000
X_385_5                       1.000000
X_386_41                      1.000000
X_387_49                      1.000000
X_388_11                      1.000000
X_389_50                      1.000000
X_390_26                      1.000000
X_391_44                      1.000000
X_392_31                      1.000000
X_393_35                      1.000000
X_394_24                      1.000000
X_395_15                      1.000000
X_396_47                      1.000000
X_397_29                      1.000000
X_398_17                      1.000000
X_399_6                       1.000000
X_400_44                      1.000000
X_401_32                      1.000000
X_402_21                      1.000000
X_403_45                      1.000000
X_404_26                      1.000000
X_405_40                      1.000000
X_406_46                      1.000000
X_407_12                      1.000000
X_408_2                       1.000000
X_409_50                      1.000000
X_410_6                       1.000000
X_411_24                      1.000000
X_412_9                       1.000000
X_413_41                      1.000000
X_414_13                      1.000000
X_415_36                      1.000000
X_416_38                      1.000000
X_417_4                       1.000000
X_418_28                      1.000000
X_419_23                      1.000000
X_420_24                      1.000000
X_421_4                       1.000000
X_422_21                      1.000000
X_423_43                      1.000000
X_424_13                      1.000000
X_425_15                      1.000000
X_426_42                      1.000000
X_427_17                      1.000000
X_428_3                       1.000000
X_429_9                       1.000000
X_430_48                      1.000000
X_431_33                      1.000000
X_432_48                      1.000000
X_433_43                      1.000000
X_434_12                      1.000000
X_435_48                      1.000000
X_436_36                      1.000000
X_437_16                      1.000000
X_438_40                      1.000000
X_439_37                      1.000000
X_440_40                      1.000000
X_441_8                       1.000000
X_442_40                      1.000000
X_443_23                      1.000000
X_444_6                       1.000000
X_445_22                      1.000000
X_446_9                       1.000000
X_447_47                      1.000000
X_448_10                      1.000000
X_449_15                      1.000000
X_450_28                      1.000000
X_451_46                      1.000000
X_452_47                      1.000000
X_453_31                      1.000000
X_454_7                       1.000000
X_455_5                       1.000000
X_455_21                     -0.000000
X_456_13                      1.000000
X_457_19                      1.000000
X_458_39                      1.000000
X_459_46                      1.000000
X_460_9                       1.000000
X_461_10                      1.000000
X_462_42                      1.000000
X_463_41                      1.000000
X_464_14                      1.000000
X_465_8                       1.000000
X_466_10                      1.000000
X_467_32                      1.000000
X_468_30                      1.000000
X_469_5                       1.000000
X_470_39                      1.000000
X_471_16                      1.000000
X_472_22                      1.000000
X_473_23                      1.000000
X_474_12                      1.000000
X_475_42                      1.000000
X_476_33                      1.000000
X_477_20                      1.000000
X_478_19                      1.000000
X_479_21                      1.000000
X_480_11                      1.000000
X_481_9                       1.000000
X_482_45                      1.000000
X_483_16                      1.000000
X_484_4                       1.000000
X_485_2                       1.000000
X_486_29                      1.000000
X_487_5                       1.000000
X_488_33                      1.000000
X_489_28                      1.000000
X_490_30                      1.000000
X_491_11                      1.000000
X_492_18                      1.000000
X_493_36                      1.000000
X_494_19                      1.000000
X_495_13                      1.000000
X_496_7                       1.000000
X_497_14                      1.000000
X_498_28                      1.000000
X_499_46                      1.000000
X_500_37                      1.000000
All other variables in the range 1-25001 are 0.
